NAME : berlin52-R-5-3-b.8036.tour
COMMENT : Length = 8036
COMMENT : Found by LKH-3 [Keld Helsgaun] Tue Jul 30 13:14:23 2024
TYPE : TOUR
DIMENSION : 52
TOUR_SECTION
1
22
18
31
23
20
50
44
34
37
38
6
25
12
28
27
26
47
13
14
52
11
51
33
43
10
9
8
41
19
45
3
17
21
42
7
2
30
29
16
46
48
24
5
4
15
40
39
36
35
49
32
-1
EOF
